Maximize
  obj: 10 x_1_1 + 8 x_1_2 + 6 x_1_3 + 9 x_1_4 + 7 x_1_5 + 11 x_1_6 + 10 x_1_7 + 8 x_1_8 + 9 x_1_9 + 7 x_1_10 + 18 x_2_1 + 20 x_2_2 + 15 x_2_3 + 17 x_2_4 + 19 x_2_5 + 16 x_2_6 + 18 x_2_7 + 20 x_2_8 + 15 x_2_9 + 17 x_2_10 + 15 x_3_1 + 16 x_3_2 + 13 x_3_3 + 17 x_3_4 + 14 x_3_5 + 18 x_3_6 + 15 x_3_7 + 16 x_3_8 + 13 x_3_9 + 17 x_3_10 + 12 x_4_1 + 14 x_4_2 + 11 x_4_3 + 13 x_4_4 + 15 x_4_5 + 12 x_4_6 + 14 x_4_7 + 11 x_4_8 + 13 x_4_9 + 15 x_4_10 + 25 x_5_1 + 22 x_5_2 + 20 x_5_3 + 24 x_5_4 + 21 x_5_5 + 23 x_5_6 + 25 x_5_7 + 22 x_5_8 + 20 x_5_9 + 24 x_5_10 + 10 x_6_1 + 10 x_6_2 + 10 x_6_3 + 10 x_6_4 + 10 x_6_5 + 10 x_6_6 + 10 x_6_7 + 10 x_6_8 + 10 x_6_9 + 10 x_6_10 + 30 x_7_1 + 28 x_7_2 + 32 x_7_3 + 29 x_7_4 + 31 x_7_5 + 27 x_7_6 + 30 x_7_7 + 28 x_7_8 + 32 x_7_9 + 29 x_7_10 + 14 x_8_1 + 15 x_8_2 + 16 x_8_3 + 17 x_8_4 + 18 x_8_5 + 19 x_8_6 + 20 x_8_7 + 21 x_8_8 + 22 x_8_9 + 23 x_8_10 + 40 x_9_1 + 35 x_9_2 + 38 x_9_3 + 42 x_9_4 + 37 x_9_5 + 39 x_9_6 + 40 x_9_7 + 35 x_9_8 + 38 x_9_9 + 42 x_9_10 + 22 x_10_1 + 24 x_10_2 + 26 x_10_3 + 28 x_10_4 + 20 x_10_5 + 21 x_10_6 + 23 x_10_7 + 25 x_10_8 + 27 x_10_9 + 29 x_10_10

Subject To
  racunar_1: 5 x_1_1 + 6 x_2_1 + 13 x_3_1 + 8 x_4_1 + 10 x_5_1 + 5 x_6_1 + 12 x_7_1 + 7 x_8_1 + 15 x_9_1 + 9 x_10_1 <= 2880
  racunar_2: 7 x_1_2 + 12 x_2_2 + 14 x_3_2 + 5 x_4_2 + 10 x_5_2 + 15 x_6_2 + 8 x_7_2 + 7 x_8_2 + 12 x_9_2 + 11 x_10_2 <= 2880
  racunar_3: 4 x_1_3 + 8 x_2_3 + 9 x_3_3 + 7 x_4_3 + 10 x_5_3 + 5 x_6_3 + 14 x_7_3 + 7 x_8_3 + 10 x_9_3 + 13 x_10_3 <= 2880
  racunar_4: 10 x_1_4 + 15 x_2_4 + 17 x_3_4 + 6 x_4_4 + 10 x_5_4 + 15 x_6_4 + 9 x_7_4 + 7 x_8_4 + 8 x_9_4 + 15 x_10_4 <= 2880
  racunar_5: 6 x_1_5 + 10 x_2_5 + 12 x_3_5 + 9 x_4_5 + 10 x_5_5 + 5 x_6_5 + 11 x_7_5 + 7 x_8_5 + 14 x_9_5 + 7 x_10_5 <= 2880
  racunar_6: 8 x_1_6 + 7 x_2_6 + 15 x_3_6 + 10 x_4_6 + 10 x_5_6 + 15 x_6_6 + 7 x_7_6 + 7 x_8_6 + 9 x_9_6 + 8 x_10_6 <= 2880
  racunar_7: 5 x_1_7 + 9 x_2_7 + 10 x_3_7 + 4 x_4_7 + 10 x_5_7 + 5 x_6_7 + 13 x_7_7 + 7 x_8_7 + 11 x_9_7 + 10 x_10_7 <= 2880
  racunar_8: 9 x_1_8 + 11 x_2_8 + 11 x_3_8 + 12 x_4_8 + 10 x_5_8 + 15 x_6_8 + 10 x_7_8 + 7 x_8_8 + 13 x_9_8 + 12 x_10_8 <= 2880
  racunar_9: 7 x_1_9 + 8 x_2_9 + 13 x_3_9 + 15 x_4_9 + 10 x_5_9 + 5 x_6_9 + 6 x_7_9 + 7 x_8_9 + 7 x_9_9 + 14 x_10_9 <= 2880
  racunar_10: 6 x_1_10 + 14 x_2_10 + 16 x_3_10 + 7 x_4_10 + 10 x_5_10 + 15 x_6_10 + 8 x_7_10 + 7 x_8_10 + 16 x_9_10 + 6 x_10_10 <= 2880
  servis_1: x_1_1 + x_1_2 + x_1_3 + x_1_4 + x_1_5 + x_1_6 + x_1_7 + x_1_8 + x_1_9 + x_1_10 <= 1000
  servis_2: x_2_1 + x_2_2 + x_2_3 + x_2_4 + x_2_5 + x_2_6 + x_2_7 + x_2_8 + x_2_9 + x_2_10 <= 600
  servis_3: x_3_1 + x_3_2 + x_3_3 + x_3_4 + x_3_5 + x_3_6 + x_3_7 + x_3_8 + x_3_9 + x_3_10 <= 500
  servis_4: x_4_1 + x_4_2 + x_4_3 + x_4_4 + x_4_5 + x_4_6 + x_4_7 + x_4_8 + x_4_9 + x_4_10 <= 800
  servis_5: x_5_1 + x_5_2 + x_5_3 + x_5_4 + x_5_5 + x_5_6 + x_5_7 + x_5_8 + x_5_9 + x_5_10 <= 400
  servis_6: x_6_1 + x_6_2 + x_6_3 + x_6_4 + x_6_5 + x_6_6 + x_6_7 + x_6_8 + x_6_9 + x_6_10 <= 1200
  servis_7: x_7_1 + x_7_2 + x_7_3 + x_7_4 + x_7_5 + x_7_6 + x_7_7 + x_7_8 + x_7_9 + x_7_10 <= 300
  servis_8: x_8_1 + x_8_2 + x_8_3 + x_8_4 + x_8_5 + x_8_6 + x_8_7 + x_8_8 + x_8_9 + x_8_10 <= 700
  servis_9: x_9_1 + x_9_2 + x_9_3 + x_9_4 + x_9_5 + x_9_6 + x_9_7 + x_9_8 + x_9_9 + x_9_10 <= 200
  servis_10: x_10_1 + x_10_2 + x_10_3 + x_10_4 + x_10_5 + x_10_6 + x_10_7 + x_10_8 + x_10_9 + x_10_10 <= 450

General
  x_1_1
  x_1_2
  x_1_3
  x_1_4
  x_1_5
  x_1_6
  x_1_7
  x_1_8
  x_1_9
  x_1_10
  x_2_1
  x_2_2
  x_2_3
  x_2_4
  x_2_5
  x_2_6
  x_2_7
  x_2_8
  x_2_9
  x_2_10
  x_3_1
  x_3_2
  x_3_3
  x_3_4
  x_3_5
  x_3_6
  x_3_7
  x_3_8
  x_3_9
  x_3_10
  x_4_1
  x_4_2
  x_4_3
  x_4_4
  x_4_5
  x_4_6
  x_4_7
  x_4_8
  x_4_9
  x_4_10
  x_5_1
  x_5_2
  x_5_3
  x_5_4
  x_5_5
  x_5_6
  x_5_7
  x_5_8
  x_5_9
  x_5_10
  x_6_1
  x_6_2
  x_6_3
  x_6_4
  x_6_5
  x_6_6
  x_6_7
  x_6_8
  x_6_9
  x_6_10
  x_7_1
  x_7_2
  x_7_3
  x_7_4
  x_7_5
  x_7_6
  x_7_7
  x_7_8
  x_7_9
  x_7_10
  x_8_1
  x_8_2
  x_8_3
  x_8_4
  x_8_5
  x_8_6
  x_8_7
  x_8_8
  x_8_9
  x_8_10
  x_9_1
  x_9_2
  x_9_3
  x_9_4
  x_9_5
  x_9_6
  x_9_7
  x_9_8
  x_9_9
  x_9_10
  x_10_1
  x_10_2
  x_10_3
  x_10_4
  x_10_5
  x_10_6
  x_10_7
  x_10_8
  x_10_9
  x_10_10

End